(declare-const a Real)
(declare-const c Real)
(declare-const b Real)
(assert (<= (+ (+ (+ (^ a 2) (^ b 2)) (^ c 2)) (^ (+ (+ a b) c) 2)) 4))
(assert (> c 0))
(assert (> b 0))
(assert (> a 0))
(assert (not (<= 3 (+ (+ (/ (+ (* a b) 1) (^ (+ a b) 2)) (/ (+ (* b c) 1) (^ (+ b c) 2))) (/ (+ (* c a) 1) (^ (+ c a) 2))))))
(check-sat)
(get-model)